SAT
74 46 73 -144 -78 -48 67 -14 -11 146 -29 100 -9 -84 63 83 -72 127 -121 -5 98 -19 -53 -79 -132 -95 130 -133 -64 103 -122 70 -6 -36 114 -42 112 -89 -71 30 18 123 145 110 -113 82 -24 17 -138 47 -1 -15 -59 21 -97 -131 -85 139 143 -50 105 -150 43 7 -25 119 -66 118 -39 62 93 -141 60 -8 -37 109 -88 -23 -80 -68 -31 -16 106 -91 115 -140 149 61 116 -75 -124 69 -96 -45 108 -40 -92 117 51 -135 -44 4 65 12 -54 120 -125 -49 87 -147 76 34 128 41 -13 20 -22 136 26 90 102 137 28 129 -81 52 107 104 -99 148 58 -134 -2 -33 3 27 -57 94 -35 111 126 142 10 77 86 55 -32 101 56 -38 0
